c colouring generated by benchmark framework
p edge 125 736
v 1 1
v 2 3
v 3 1
v 4 1
v 5 3
v 6 2
v 7 4
v 8 4
v 9 3
v 10 0
v 11 4
v 12 3
v 13 4
v 14 0
v 15 3
v 16 1
v 17 1
v 18 2
v 19 2
v 20 2
v 21 3
v 22 2
v 23 1
v 24 1
v 25 3
v 26 4
v 27 4
v 28 0
v 29 4
v 30 2
v 31 1
v 32 0
v 33 4
v 34 2
v 35 4
v 36 3
v 37 0
v 38 0
v 39 0
v 40 4
v 41 0
v 42 1
v 43 0
v 44 0
v 45 0
v 46 1
v 47 0
v 48 4
v 49 1
v 50 3
v 51 2
v 52 2
v 53 4
v 54 0
v 55 4
v 56 3
v 57 1
v 58 0
v 59 4
v 60 4
v 61 4
v 62 2
v 63 3
v 64 2
v 65 2
v 66 1
v 67 3
v 68 1
v 69 0
v 70 3
v 71 0
v 72 2
v 73 0
v 74 2
v 75 0
v 76 3
v 77 1
v 78 4
v 79 4
v 80 4
v 81 4
v 82 1
v 83 1
v 84 0
v 85 3
v 86 3
v 87 4
v 88 3
v 89 1
v 90 1
v 91 0
v 92 1
v 93 2
v 94 2
v 95 3
v 96 2
v 97 3
v 98 3
v 99 2
v 100 1
v 101 2
v 102 4
v 103 1
v 104 0
v 105 2
v 106 0
v 107 4
v 108 4
v 109 4
v 110 2
v 111 0
v 112 2
v 113 3
v 114 0
v 115 3
v 116 2
v 117 0
v 118 1
v 119 3
v 120 3
v 121 0
v 122 3
v 123 0
v 124 1
v 125 0
